[ti. 04. april 18:11:30 +0200 2023]  ./input/alternate_g_np/50-5-0.gcc
Set parameter Username
Academic license - for non-commercial use only - expires 2024-03-28
Set parameter TimeLimit to value 1800
Set parameter PreCrush to value 1
Set parameter LazyConstraints to value 1
Gurobi Optimizer version 10.0.1 build v10.0.1rc0 (linux64)

CPU model: AMD Ryzen 9 5950X 16-Core Processor, instruction set [SSE2|AVX|AVX2]
Thread count: 16 physical cores, 32 logical processors, using up to 32 threads

Optimize a model with 56 rows, 350 columns and 950 nonzeros
Model fingerprint: 0xba97321d
Variable types: 0 continuous, 350 integer (350 binary)
Coefficient statistics:
  Matrix range     [1e+00, 1e+00]
  Objective range  [1e+00, 1e+02]
  Bounds range     [1e+00, 1e+00]
  RHS range        [1e+00, 1e+00]
Presolve time: 0.00s
Presolved: 56 rows, 350 columns, 950 nonzeros
Variable types: 0 continuous, 350 integer (350 binary)

Root relaxation: objective 2.612000e+03, 6 iterations, 0.00 seconds (0.00 work units)

    Nodes    |    Current Node    |     Objective Bounds      |     Work
 Expl Unexpl |  Obj  Depth IntInf | Incumbent    BestBd   Gap | It/Node Time

     0     0 2612.00000    0    6          - 2612.00000      -     -    0s
     0     0 2612.00000    0    -          - 2612.00000      -     -    0s
     0     0 2612.00000    0    -          - 2612.00000      -     -    0s
     0     0 2612.00000    0    4          - 2612.00000      -     -    0s
     0     0 2612.00000    0    -          - 2612.00000      -     -    0s
     0     0 2612.00000    0    9          - 2612.00000      -     -    0s
     0     0 2612.00000    0    4          - 2612.00000      -     -    0s
     0     0 2612.00000    0    -          - 2612.00000      -     -    0s
     0     0 2612.00000    0    4          - 2612.00000      -     -    0s
     0     2 2612.00000    0    5          - 2612.00000      -     -    0s
H 9521  4925                    2528.0000000 2612.00000  3.32%  11.9    1s
H 9521  4679                    2539.0000000 2612.00000  2.88%  11.9    1s
H 9522  4446                    2578.0000000 2612.00000  1.32%  11.9    1s
H 9522  4223                    2612.0000000 2612.00000  0.00%  11.9    1s

Cutting planes:
  User: 2
  Gomory: 1
  Zero half: 1
  Lazy constraints: 23

Explored 9522 nodes (113460 simplex iterations) in 1.07 seconds (0.52 work units)
Thread count was 32 (of 32 available processors)

Solution count 4: 2612 2578 2539 2528 

Optimal solution found (tolerance 1.00e-04)
Best objective 2.612000000000e+03, best bound 2.612000000000e+03, gap 0.0000%

User-callback calls 19917, time in user-callback 0.22 sec
Minimal separator inequalities added: 10014
Indegree inequalities added: 0
Passed solution check
[ti. 04. april 18:11:31 +0200 2023]  done

